Solving original (integer) problem with strategy gdp.hull...
--- Job model.gms Start 02/16/26 04:07:57 52.2.0 d8e408be LEX-LEG x86 64bit/Linux
--- Applying:
    /package/gams/52.2/gmsprmun.txt
--- GAMS Parameters defined
    Input /local/scratch/a/sgusev/repos/k_means/data/gams_scip_gdp.hull/no_mode/2026-02-16_04-07-57/original/model.gms
    Output /local/scratch/a/sgusev/repos/k_means/data/gams_scip_gdp.hull/no_mode/2026-02-16_04-07-57/original/output.lst
    ScrDir /local/scratch/a/sgusev/repos/k_means/data/gams_scip_gdp.hull/no_mode/2026-02-16_04-07-57/original/225a/
    SysDir /package/gams/52.2/
    CurDir /local/scratch/a/sgusev/repos/k_means/data/gams_scip_gdp.hull/no_mode/2026-02-16_04-07-57/original/
    LogOption 3
    AppendLog 1
Licensee: David Bernal / SECQUOIA Research Group         G251008+0003Ac-GEN
          Purdue University, Davidson School of Chemical EngineeringDCE4838
          225a/gamslice.dat
          5a82958a-fbca-4a23
          node:66820903 mem:995 cores:48 ipport:56963 v:2                  
          Evaluation license: Not for commercial or production use
          The time-limited license stops working on : Jun 30, 2027
System information: 48 physical cores and 995 Gb physical memory detected
GAMS 52.2.0   Copyright (C) 1987-2025 GAMS Development. All rights reserved
--- Starting compilation
--- model.gms(2627) 2 Mb
--- $echo File /local/scratch/a/sgusev/repos/k_means/data/gams_scip_gdp.hull/no_mode/2026-02-16_04-07-57/original/scip.opt
--- model.gms(3877) 2 Mb
--- Starting execution: elapsed 0:00:00.015
--- model.gms(2637) 3 Mb
--- Generating MINLP model GAMS_MODEL
--- model.gms(2641) 5 Mb
---   798 rows  385 columns  1,925 non-zeroes
---   1,800 nl-code  225 nl-non-zeroes
---   45 discrete-columns
--- Range statistics (absolute non-zero finite values)
--- RHS       [min, max] : [ 2.280E-05, 1.000E+00] - Zero values observed as well
--- Bound     [min, max] : [ 1.000E+00, 9.000E+01] - Zero values observed as well
--- Matrix    [min, max] : [ 1.699E-02, 9.000E+01]
--- model.gms(2641) 3 Mb
--- Executing SCIP (Solvelink=5): elapsed 0:00:00.020

SCIP             52.2.0 d8e408be Dec 8, 2025           LEG x86 64bit/Linux    
SCIP version 9.2.4 (a94f778ac8)
Copyright (c) 2002-2025 Zuse Institute Berlin (ZIB)

External libraries: 
  CPLEX 22.1.2.0       Linear Programming Solver developed by IBM (www.cplex.com)
  CppAD 20180000.0     Algorithmic Differentiation of C++ algorithms developed by B. Bell (github.com/coin-or/CppAD)
  PaPILO 2.4.4         parallel presolve for integer and linear optimization (github.com/scipopt/papilo) (built with TBB) [GitHash: 7c826d50]
  Nauty 2.8.9          Computing Graph Automorphism Groups by Brendan D. McKay (users.cecs.anu.edu.au/~bdm/nauty)
  sassy 1.1            Symmetry preprocessor by Markus Anders (github.com/markusa4/sassy)
  Ipopt 3.14.19        Interior Point Optimizer developed by A. Waechter et.al. (github.com/coin-or/Ipopt)

reading option file /local/scratch/a/sgusev/repos/k_means/data/gams_scip_gdp.hull/no_mode/2026-02-16_04-07-57/original/scip.opt
non-default parameter settings:
limits/time = 300
limits/gap = 1e-06
limits/absgap = 1e-10
lp/threads = 1
misc/printreason = FALSE
numerics/dualfeastol = 1e-06
parallel/maxnthreads = 1
nlpi/ipopt/linear_solver = "ma27"
nlpi/ipopt/linear_system_scaling = "mc19"

original problem has 384 variables (45 bin, 0 int, 339 cont) and 797 constraints

all 1 solutions given by solution candidate storage are infeasible

presolving:
(round 1, fast)       15 del vars, 0 del conss, 0 add conss, 0 chg bounds, 0 chg sides, 0 chg coeffs, 0 upgd conss, 0 impls, 15 clqs
(round 2, fast)       15 del vars, 0 del conss, 0 add conss, 0 chg bounds, 15 chg sides, 0 chg coeffs, 0 upgd conss, 0 impls, 15 clqs
(round 3, exhaustive) 15 del vars, 0 del conss, 0 add conss, 0 chg bounds, 15 chg sides, 0 chg coeffs, 600 upgd conss, 0 impls, 15 clqs
   (0.1s) probing cycle finished: starting next cycle
   (0.1s) symmetry computation started: requiring (bin +, int +, cont +), (fixed: bin -, int -, cont -)
   (0.1s) no symmetry present (symcode time: 0.00)
presolving (4 rounds: 4 fast, 2 medium, 2 exhaustive):
 15 deleted vars, 0 deleted constraints, 0 added constraints, 0 tightened bounds, 0 added holes, 15 changed sides, 0 changed coefficients
 1215 implications, 15 cliques
presolved problem has 369 variables (45 bin, 0 int, 0 impl, 324 cont) and 797 constraints
    585 constraints of type <varbound>
     15 constraints of type <setppc>
    152 constraints of type <linear>
     45 constraints of type <nonlinear>
Presolving Time: 0.06

 time | node  | left  |LP iter|LP it/n|mem/heur|mdpt |vars |cons |rows |cuts |sepa|confs|strbr|  dualbound   | primalbound  |  gap   | compl. 
  0.1s|     1 |     0 |   724 |     - |    14M |   0 |1314 | 797 |2138 |   0 |  0 |   0 |   0 | 0.000000e+00 |      --      |    Inf | unknown
p 0.2s|     1 |     0 |   797 |     - |  clique|   0 |1314 | 797 |2138 |   0 |  0 |   0 |   0 | 0.000000e+00 | 1.115868e+01 |    Inf | unknown
  0.2s|     1 |     0 |  1092 |     - |    15M |   0 |1314 | 797 |2194 |  56 |  1 |   0 |   0 | 0.000000e+00 | 1.115868e+01 |    Inf | unknown
  0.2s|     1 |     0 |  1092 |     - |    15M |   0 |1314 | 797 |2179 |  56 |  1 |   0 |   0 | 0.000000e+00 | 1.115868e+01 |    Inf | unknown
  0.2s|     1 |     0 |  1237 |     - |    15M |   0 |1314 | 797 |2238 | 115 |  2 |   0 |   0 | 0.000000e+00 | 1.115868e+01 |    Inf | unknown
  0.2s|     1 |     0 |  1325 |     - |    16M |   0 |1314 | 797 |2293 | 170 |  3 |   0 |   0 | 0.000000e+00 | 1.115868e+01 |    Inf | unknown
  0.3s|     1 |     0 |  1393 |     - |    16M |   0 |1314 | 797 |2343 | 220 |  4 |   0 |   0 | 0.000000e+00 | 1.115868e+01 |    Inf | unknown
  0.3s|     1 |     0 |  1442 |     - |    16M |   0 |1314 | 797 |2396 | 273 |  5 |   0 |   0 | 0.000000e+00 | 1.115868e+01 |    Inf | unknown
  0.3s|     1 |     0 |  1480 |     - |    17M |   0 |1314 | 797 |2444 | 321 |  6 |   0 |   0 | 0.000000e+00 | 1.115868e+01 |    Inf | unknown
  0.3s|     1 |     0 |  1505 |     - |    17M |   0 |1314 | 797 |2491 | 368 |  7 |   0 |   0 | 0.000000e+00 | 1.115868e+01 |    Inf | unknown
  0.3s|     1 |     0 |  1538 |     - |    17M |   0 |1314 | 797 |2536 | 413 |  8 |   0 |   0 | 0.000000e+00 | 1.115868e+01 |    Inf | unknown
  0.3s|     1 |     0 |  1559 |     - |    17M |   0 |1314 | 797 |2582 | 459 |  9 |   0 |   0 | 0.000000e+00 | 1.115868e+01 |    Inf | unknown
  0.3s|     1 |     0 |  1574 |     - |    18M |   0 |1314 | 797 |2618 | 495 | 10 |   0 |   0 | 0.000000e+00 | 1.115868e+01 |    Inf | unknown
  0.3s|     1 |     0 |  1585 |     - |    19M |   0 |1314 | 797 |1531 | 521 | 11 |   0 |   0 | 0.000000e+00 | 1.115868e+01 |    Inf | unknown
  0.3s|     1 |     0 |  1592 |     - |    19M |   0 |1314 | 797 |1552 | 542 | 12 |   0 |   0 | 0.000000e+00 | 1.115868e+01 |    Inf | unknown
 time | node  | left  |LP iter|LP it/n|mem/heur|mdpt |vars |cons |rows |cuts |sepa|confs|strbr|  dualbound   | primalbound  |  gap   | compl. 
  0.3s|     1 |     0 |  1597 |     - |    19M |   0 |1314 | 797 |1566 | 556 | 13 |   0 |   0 | 0.000000e+00 | 1.115868e+01 |    Inf | unknown
  0.3s|     1 |     0 |  1599 |     - |    19M |   0 |1314 | 797 |1570 | 560 | 14 |   0 |   0 | 0.000000e+00 | 1.115868e+01 |    Inf | unknown
  0.4s|     1 |     0 |  1603 |     - |    20M |   0 |1314 | 797 |1573 | 563 | 15 |   0 |   0 | 0.000000e+00 | 1.115868e+01 |    Inf | unknown
  1.1s|     1 |     0 | 14784 |     - |    20M |   0 |1314 | 782 |1573 | 563 | 15 |   0 |   0 | 0.000000e+00 | 1.115868e+01 |    Inf | unknown
  1.1s|     1 |     0 | 14797 |     - |    20M |   0 |1314 | 782 |1576 | 566 | 16 |   0 |   0 | 0.000000e+00 | 1.115868e+01 |    Inf | unknown
  1.1s|     1 |     0 | 14808 |     - |    20M |   0 |1314 | 782 |1582 | 572 | 17 |   0 |   0 | 0.000000e+00 | 1.115868e+01 |    Inf | unknown
  1.1s|     1 |     0 | 14824 |     - |    20M |   0 |1314 | 782 |1586 | 576 | 18 |   0 |   0 | 0.000000e+00 | 1.115868e+01 |    Inf | unknown
  1.1s|     1 |     0 | 14825 |     - |    21M |   0 |1314 | 782 |1589 | 579 | 19 |   0 |   0 | 0.000000e+00 | 1.115868e+01 |    Inf | unknown
  1.1s|     1 |     0 | 14826 |     - |    21M |   0 |1314 | 782 |1187 | 582 | 20 |   0 |   0 | 0.000000e+00 | 1.115868e+01 |    Inf | unknown
L 1.2s|     1 |     0 | 14827 |     - |    rens|   0 |1314 | 782 |1187 | 582 | 21 |   0 |   0 | 0.000000e+00 | 8.713825e+00 |    Inf | unknown
  1.6s|     1 |     0 | 14827 |     - |    23M |   0 |1314 | 782 |1187 | 582 | 21 |   0 |   0 | 0.000000e+00 | 8.713825e+00 |    Inf | unknown
  1.6s|     1 |     0 | 14828 |     - |    23M |   0 |1314 | 782 |1187 | 582 | 22 |   0 |   1 | 0.000000e+00 | 8.713825e+00 |    Inf | unknown
  1.6s|     1 |     0 | 14829 |     - |    23M |   0 |1314 | 782 |1195 | 590 | 23 |   0 |   1 | 0.000000e+00 | 8.713825e+00 |    Inf | unknown
  1.6s|     1 |     0 | 14830 |     - |    23M |   0 |1314 | 782 |1197 | 592 | 24 |   0 |   1 | 0.000000e+00 | 8.713825e+00 |    Inf | unknown
  1.6s|     1 |     0 | 14833 |     - |    23M |   0 |1314 | 782 |1206 | 601 | 24 |   0 |   1 | 0.000000e+00 | 8.713825e+00 |    Inf | unknown
 time | node  | left  |LP iter|LP it/n|mem/heur|mdpt |vars |cons |rows |cuts |sepa|confs|strbr|  dualbound   | primalbound  |  gap   | compl. 
  1.6s|     1 |     0 | 14834 |     - |    23M |   0 |1314 | 782 |1175 | 609 | 25 |   0 |   1 | 0.000000e+00 | 8.713825e+00 |    Inf | unknown
  1.6s|     1 |     0 | 14837 |     - |    23M |   0 |1314 | 782 |1175 | 609 | 26 |   0 |   2 | 0.000000e+00 | 8.713825e+00 |    Inf | unknown
  1.7s|     1 |     0 | 14840 |     - |    23M |   0 |1314 | 782 |1184 | 618 | 27 |   0 |   2 | 0.000000e+00 | 8.713825e+00 |    Inf | unknown
  1.7s|     1 |     0 | 14842 |     - |    23M |   0 |1314 | 782 |1185 | 619 | 28 |   0 |   2 | 0.000000e+00 | 8.713825e+00 |    Inf | unknown
  1.7s|     1 |     2 | 14842 |     - |    23M |   0 |1314 | 782 |1185 | 619 | 28 |   0 |   2 | 0.000000e+00 | 8.713825e+00 |    Inf | unknown
d 1.8s|     6 |     7 | 15467 |2808.6 |pscostdi|   5 |1314 | 782 |1271 |1283 |  2 |   0 |   2 | 0.000000e+00 | 8.123789e+00 |    Inf | unknown
L 2.0s|    10 |    11 | 16024 |1622.2 |  subnlp|   6 |1314 | 782 |1454 |1774 |  8 |   0 |   2 | 0.000000e+00 | 7.886221e+00 |    Inf | unknown
  5.3s|   100 |   101 | 31259 | 301.4 |    29M |  15 |1314 | 782 |1374 |  14k|  2 |   0 |  14 | 0.000000e+00 | 7.886221e+00 |    Inf | unknown
  9.0s|   200 |   201 | 49862 | 243.4 |    38M |  17 |1314 | 782 |1744 |  30k| 11 |   0 |  54 | 0.000000e+00 | 7.886221e+00 |    Inf | unknown
L 9.6s|   210 |   211 | 51476 | 239.5 |    rins|  17 |1314 | 782 |1656 |  32k| 10 |   0 |  56 | 0.000000e+00 | 5.960722e+00 |    Inf | unknown
 12.9s|   300 |   301 | 71666 | 234.9 |    46M |  17 |1314 | 782 |1452 |  48k|  2 |   0 |  76 | 0.000000e+00 | 5.960722e+00 |    Inf | unknown
 16.6s|   400 |   401 | 94082 | 232.2 |    54M |  17 |1314 | 782 |1402 |  64k|  2 |   0 |  94 | 0.000000e+00 | 5.960722e+00 |    Inf | unknown
 20.4s|   500 |   501 |112098 | 221.8 |    60M |  19 |1314 | 782 |1516 |  78k|  3 |   0 | 130 | 0.000000e+00 | 5.960722e+00 |    Inf | unknown
 24.0s|   600 |   601 |128454 | 212.1 |    64M |  19 |1314 | 782 |1672 |  91k|  9 |   0 | 154 | 0.000000e+00 | 5.960722e+00 |    Inf | unknown
 27.7s|   700 |   701 |141958 | 201.1 |    68M |  19 |1314 | 782 |1494 | 103k|  2 |   0 | 178 | 6.359413e-02 | 5.960722e+00 |9273.07%| unknown
 time | node  | left  |LP iter|LP it/n|mem/heur|mdpt |vars |cons |rows |cuts |sepa|confs|strbr|  dualbound   | primalbound  |  gap   | compl. 
 31.5s|   800 |   801 |156183 | 193.7 |    74M |  19 |1314 | 782 |1599 | 113k|  5 |   0 | 219 | 2.581960e-01 | 5.960722e+00 |2208.60%| unknown
 35.6s|   900 |   901 |173666 | 191.6 |    80M |  20 |1314 | 782 |1553 | 126k| 14 |   0 | 253 | 4.311361e-01 | 5.960722e+00 |1282.56%| unknown
 39.4s|  1000 |  1001 |190486 | 189.3 |    85M |  20 |1314 | 782 |1648 | 140k| 10 |   0 | 299 | 4.843442e-01 | 5.960722e+00 |1130.68%| unknown
 43.2s|  1100 |  1101 |205924 | 186.1 |    90M |  21 |1314 | 782 |1739 | 153k| 13 |   0 | 323 | 5.148012e-01 | 5.960722e+00 |1057.87%| unknown
 46.5s|  1200 |  1201 |219592 | 182.0 |    94M |  22 |1314 | 782 |1653 | 164k| 12 |   0 | 362 | 5.431684e-01 | 5.960722e+00 | 997.40%| unknown
 49.8s|  1300 |  1301 |234670 | 179.6 |    99M |  23 |1314 | 782 |1698 | 177k|  8 |   0 | 407 | 6.123306e-01 | 5.960722e+00 | 873.45%| unknown
 53.6s|  1400 |  1401 |250562 | 178.1 |   104M |  23 |1314 | 782 |1515 | 190k|  2 |   0 | 445 | 6.123306e-01 | 5.960722e+00 | 873.45%| unknown
 56.9s|  1500 |  1501 |265328 | 176.1 |   107M |  24 |1314 | 782 |1617 | 203k|  7 |   0 | 456 | 6.123361e-01 | 5.960722e+00 | 873.44%| unknown
 60.2s|  1600 |  1601 |278780 | 173.5 |   109M |  24 |1314 | 782 |1714 | 215k|  7 |   0 | 470 | 6.276027e-01 | 5.960722e+00 | 849.76%| unknown
 63.5s|  1700 |  1701 |292151 | 171.1 |   113M |  24 |1314 | 782 |1428 | 226k|  2 |   0 | 494 | 6.453205e-01 | 5.960722e+00 | 823.68%| unknown
 67.1s|  1800 |  1801 |305254 | 168.9 |   116M |  24 |1314 | 782 |1423 | 239k|  2 |   0 | 514 | 7.125963e-01 | 5.960722e+00 | 736.48%| unknown
 71.3s|  1900 |  1897 |318704 | 167.1 |   120M |  27 |1314 | 782 |1678 | 251k|  7 |   0 | 529 | 8.217693e-01 | 5.960722e+00 | 625.35%| unknown
 74.5s|  2000 |  1997 |334819 | 166.8 |   125M |  27 |1314 | 782 |1822 | 263k| 11 |   0 | 562 | 8.371393e-01 | 5.960722e+00 | 612.03%| unknown
 77.8s|  2100 |  2097 |349280 | 165.7 |   128M |  27 |1314 | 782 |1443 | 276k| 10 |   0 | 576 | 8.524301e-01 | 5.960722e+00 | 599.26%| unknown
 81.0s|  2200 |  2197 |361167 | 163.6 |   130M |  27 |1314 | 782 |1674 | 288k|  6 |   0 | 584 | 8.622267e-01 | 5.960722e+00 | 591.32%| unknown
 time | node  | left  |LP iter|LP it/n|mem/heur|mdpt |vars |cons |rows |cuts |sepa|confs|strbr|  dualbound   | primalbound  |  gap   | compl. 
 84.1s|  2300 |  2295 |373812 | 162.0 |   134M |  27 |1314 | 782 |1678 | 299k| 10 |   0 | 592 | 8.893652e-01 | 5.960722e+00 | 570.22%| unknown
 87.4s|  2400 |  2395 |387438 | 160.9 |   139M |  27 |1314 | 782 |1526 | 313k|  2 |   0 | 601 | 9.156907e-01 | 5.960722e+00 | 550.95%| unknown
 90.6s|  2500 |  2495 |400984 | 159.9 |   140M |  27 |1314 | 782 |1512 | 324k|  4 |   0 | 614 | 9.171060e-01 | 5.960722e+00 | 549.95%| unknown
 94.1s|  2600 |  2593 |414922 | 159.1 |   144M |  27 |1314 | 782 |1587 | 337k|  2 |   0 | 624 | 9.695470e-01 | 5.960722e+00 | 514.79%| unknown
 97.5s|  2700 |  2693 |429071 | 158.4 |   147M |  27 |1314 | 782 |1613 | 349k|  6 |   0 | 637 | 9.703850e-01 | 5.960722e+00 | 514.26%| unknown
  101s|  2800 |  2791 |446310 | 158.9 |   151M |  27 |1314 | 782 |1465 | 363k|  3 |   0 | 656 | 9.931090e-01 | 5.960722e+00 | 500.21%| unknown
  104s|  2900 |  2889 |460854 | 158.5 |   154M |  27 |1314 | 782 |1724 | 375k|  9 |   0 | 663 | 1.052139e+00 | 5.960722e+00 | 466.53%| unknown
  107s|  3000 |  2987 |474038 | 157.6 |   157M |  27 |1314 | 782 |1684 | 387k|  7 |   0 | 672 | 1.091289e+00 | 5.960722e+00 | 446.21%| unknown
  110s|  3100 |  3085 |486798 | 156.6 |   160M |  27 |1314 | 782 |1624 | 398k|  2 |   0 | 682 | 1.103220e+00 | 5.960722e+00 | 440.30%| unknown
  113s|  3200 |  3185 |500356 | 156.0 |   164M |  27 |1314 | 782 |1514 | 410k| 11 |   0 | 682 | 1.116158e+00 | 5.960722e+00 | 434.04%| unknown
  116s|  3300 |  3281 |516103 | 156.0 |   166M |  27 |1314 | 782 |1385 | 423k|  2 |   0 | 692 | 1.185125e+00 | 5.960722e+00 | 402.96%| unknown
  120s|  3400 |  3379 |529128 | 155.3 |   170M |  27 |1314 | 782 |1694 | 434k|  5 |   0 | 697 | 1.187993e+00 | 5.960722e+00 | 401.75%| unknown
  123s|  3500 |  3477 |543217 | 154.8 |   173M |  27 |1314 | 782 |1579 | 446k|  8 |   0 | 706 | 1.205846e+00 | 5.960722e+00 | 394.32%| unknown
  126s|  3600 |  3577 |557996 | 154.6 |   176M |  27 |1314 | 782 |1640 | 459k| 11 |   0 | 711 | 1.216007e+00 | 5.960722e+00 | 390.19%| unknown
  129s|  3700 |  3667 |571315 | 154.1 |   180M |  27 |1314 | 782 |1691 | 470k|  7 |   0 | 720 | 1.255451e+00 | 5.960722e+00 | 374.79%| unknown
 time | node  | left  |LP iter|LP it/n|mem/heur|mdpt |vars |cons |rows |cuts |sepa|confs|strbr|  dualbound   | primalbound  |  gap   | compl. 
  132s|  3800 |  3761 |582838 | 153.0 |   183M |  27 |1314 | 782 |1535 | 479k|  2 |   0 | 728 | 1.262994e+00 | 5.960722e+00 | 371.95%| unknown
  135s|  3900 |  3859 |597318 | 152.8 |   186M |  27 |1314 | 782 |1751 | 492k| 10 |   0 | 732 | 1.281738e+00 | 5.960722e+00 | 365.05%| unknown
  138s|  4000 |  3953 |610976 | 152.4 |   190M |  27 |1314 | 782 |1671 | 504k| 10 |   0 | 734 | 1.304167e+00 | 5.960722e+00 | 357.05%| unknown
  142s|  4100 |  4049 |623420 | 151.7 |   194M |  27 |1314 | 782 |1718 | 515k|  8 |   0 | 737 | 1.304167e+00 | 5.960722e+00 | 357.05%| unknown
  145s|  4200 |  4141 |635996 | 151.1 |   196M |  28 |1314 | 782 |1531 | 528k|  8 |   0 | 742 | 1.324523e+00 | 5.960722e+00 | 350.03%| unknown
  148s|  4300 |  4241 |649870 | 150.8 |   199M |  28 |1314 | 782 |1816 | 540k|  8 |   0 | 754 | 1.326128e+00 | 5.960722e+00 | 349.48%| unknown
  151s|  4400 |  4333 |663979 | 150.6 |   205M |  28 |1314 | 782 |1561 | 553k|  2 |   0 | 758 | 1.333327e+00 | 5.960722e+00 | 347.06%| unknown
  154s|  4500 |  4433 |677213 | 150.2 |   208M |  28 |1314 | 782 |1536 | 564k|  3 |   0 | 763 | 1.333327e+00 | 5.960722e+00 | 347.06%| unknown
  157s|  4600 |  4531 |689996 | 149.7 |   211M |  28 |1314 | 782 |1636 | 576k|  2 |   0 | 771 | 1.341686e+00 | 5.960722e+00 | 344.27%| unknown
  161s|  4700 |  4625 |702807 | 149.3 |   214M |  28 |1314 | 782 |1668 | 586k| 11 |   0 | 778 | 1.341686e+00 | 5.960722e+00 | 344.27%| unknown
  164s|  4800 |  4725 |715534 | 148.8 |   216M |  28 |1314 | 782 |1744 | 597k|  7 |   0 | 788 | 1.355105e+00 | 5.960722e+00 | 339.87%| unknown
  166s|  4900 |  4825 |726451 | 148.0 |   218M |  28 |1314 | 782 |1676 | 607k|  9 |   0 | 794 | 1.371373e+00 | 5.960722e+00 | 334.65%| unknown
  170s|  5000 |  4923 |740986 | 147.9 |   222M |  28 |1314 | 782 |1534 | 619k|  2 |   0 | 797 | 1.389467e+00 | 5.960722e+00 | 328.99%| unknown
  173s|  5100 |  5023 |751636 | 147.1 |   224M |  28 |1314 | 782 |1662 | 629k|  8 |   0 | 798 | 1.433079e+00 | 5.960722e+00 | 315.94%| unknown
  176s|  5200 |  5123 |764330 | 146.7 |   227M |  28 |1314 | 782 |1705 | 641k|  2 |   0 | 807 | 1.469493e+00 | 5.960722e+00 | 305.63%| unknown
 time | node  | left  |LP iter|LP it/n|mem/heur|mdpt |vars |cons |rows |cuts |sepa|confs|strbr|  dualbound   | primalbound  |  gap   | compl. 
  179s|  5300 |  5223 |775692 | 146.1 |   231M |  28 |1314 | 782 |1770 | 651k| 10 |   0 | 810 | 1.486397e+00 | 5.960722e+00 | 301.02%| unknown
  182s|  5400 |  5319 |789999 | 146.1 |   234M |  28 |1314 | 782 |1532 | 662k|  2 |   0 | 820 | 1.486397e+00 | 5.960722e+00 | 301.02%| unknown
  185s|  5500 |  5415 |803332 | 145.8 |   236M |  28 |1314 | 782 |1622 | 674k|  9 |   0 | 823 | 1.496233e+00 | 5.960722e+00 | 298.38%| unknown
  189s|  5600 |  5509 |818054 | 145.9 |   240M |  28 |1314 | 782 |1555 | 688k| 10 |   0 | 825 | 1.506636e+00 | 5.960722e+00 | 295.63%| unknown
  192s|  5700 |  5605 |834514 | 146.2 |   242M |  28 |1314 | 782 |1733 | 702k|  8 |   0 | 829 | 1.518490e+00 | 5.960722e+00 | 292.54%|   8.73%
  195s|  5800 |  5697 |847837 | 146.0 |   245M |  28 |1314 | 782 |1688 | 714k|  9 |   0 | 835 | 1.527688e+00 | 5.960722e+00 | 290.18%|   8.74%
  198s|  5900 |  5795 |861695 | 145.8 |   249M |  28 |1314 | 782 |1683 | 726k|  6 |   0 | 843 | 1.552334e+00 | 5.960722e+00 | 283.98%|   8.77%
  201s|  6000 |  5883 |874857 | 145.6 |   251M |  28 |1314 | 782 |1647 | 737k|  8 |   0 | 850 | 1.553626e+00 | 5.960722e+00 | 283.67%|   8.79%
  204s|  6100 |  5977 |888850 | 145.5 |   256M |  28 |1314 | 782 |1505 | 749k|  7 |   0 | 854 | 1.564920e+00 | 5.960722e+00 | 280.90%|   8.97%
  207s|  6200 |  6071 |901301 | 145.2 |   257M |  28 |1314 | 782 |1589 | 759k|  3 |   0 | 858 | 1.587731e+00 | 5.960722e+00 | 275.42%|   9.02%
  210s|  6300 |  6167 |913667 | 144.8 |   263M |  28 |1314 | 782 |1785 | 770k|  7 |   0 | 860 | 1.592027e+00 | 5.960722e+00 | 274.41%|   9.03%
  213s|  6400 |  6259 |926918 | 144.6 |   265M |  28 |1314 | 782 |1656 | 781k|  7 |   0 | 865 | 1.613231e+00 | 5.960722e+00 | 269.49%|   9.11%
  217s|  6500 |  6355 |939898 | 144.4 |   268M |  28 |1314 | 782 |1505 | 793k|  2 |   0 | 873 | 1.624862e+00 | 5.960722e+00 | 266.84%|   9.11%
  220s|  6600 |  6443 |952873 | 144.2 |   271M |  28 |1314 | 782 |1660 | 804k|  8 |   0 | 875 | 1.624862e+00 | 5.960722e+00 | 266.84%|   9.14%
  223s|  6700 |  6533 |966136 | 144.0 |   273M |  28 |1314 | 782 |1715 | 816k|  8 |   0 | 876 | 1.645885e+00 | 5.960722e+00 | 262.16%|   9.22%
 time | node  | left  |LP iter|LP it/n|mem/heur|mdpt |vars |cons |rows |cuts |sepa|confs|strbr|  dualbound   | primalbound  |  gap   | compl. 
  226s|  6800 |  6621 |980226 | 144.0 |   274M |  28 |1314 | 782 |1854 | 828k|  6 |   0 | 884 | 1.650090e+00 | 5.960722e+00 | 261.24%|   9.41%
  229s|  6900 |  6707 |992285 | 143.6 |   277M |  28 |1314 | 782 |1694 | 838k|  7 |   0 | 889 | 1.654295e+00 | 5.960722e+00 | 260.32%|   9.45%
  232s|  7000 |  6797 |  1004k| 143.3 |   280M |  28 |1314 | 782 |1606 | 849k| 12 |   0 | 891 | 1.661380e+00 | 5.960722e+00 | 258.78%|   9.52%
  235s|  7100 |  6891 |  1017k| 143.1 |   283M |  28 |1314 | 782 |1508 | 861k| 11 |   0 | 896 | 1.663976e+00 | 5.960722e+00 | 258.22%|   9.53%
  238s|  7200 |  6979 |  1029k| 142.8 |   285M |  29 |1314 | 782 |1537 | 873k|  4 |   1 | 904 | 1.670808e+00 | 5.960722e+00 | 256.76%|   9.58%
  241s|  7300 |  7077 |  1042k| 142.7 |   288M |  29 |1314 | 782 |1549 | 884k|  2 |   1 | 904 | 1.670808e+00 | 5.960722e+00 | 256.76%|   9.60%
  243s|  7400 |  7157 |  1058k| 142.9 |   289M |  41 |1314 | 782 |1617 | 891k|  9 |   2 | 906 | 1.673985e+00 | 5.960722e+00 | 256.08%|   9.62%
  246s|  7500 |  7219 |  1070k| 142.5 |   291M |  47 |1314 | 782 |1812 | 901k|  9 |   2 | 913 | 1.673985e+00 | 5.960722e+00 | 256.08%|   9.68%
  248s|  7600 |  7295 |  1083k| 142.3 |   293M |  47 |1314 | 782 |1524 | 910k|  2 |   2 | 928 | 1.673985e+00 | 5.960722e+00 | 256.08%|   9.69%
  251s|  7700 |  7369 |  1095k| 142.1 |   294M |  47 |1314 | 782 |1641 | 922k|  2 |   3 | 938 | 1.673985e+00 | 5.960722e+00 | 256.08%|   9.78%
  253s|  7800 |  7425 |  1106k| 141.6 |   303M |  47 |1314 | 782 |1686 | 931k|  3 |   3 | 939 | 1.673985e+00 | 5.960722e+00 | 256.08%|   9.85%
  256s|  7900 |  7491 |  1117k| 141.3 |   305M |  47 |1314 | 782 |1765 | 940k|  3 |   3 | 943 | 1.673985e+00 | 5.960722e+00 | 256.08%|   9.90%
  258s|  8000 |  7551 |  1127k| 140.7 |   308M |  47 |1314 | 782 |1747 | 948k|  7 |   3 | 944 | 1.673985e+00 | 5.960722e+00 | 256.08%|   9.92%
  260s|  8100 |  7615 |  1137k| 140.3 |   311M |  47 |1314 | 782 |1619 | 957k|  2 |   3 | 947 | 1.673985e+00 | 5.960722e+00 | 256.08%|   9.94%
  263s|  8200 |  7685 |  1148k| 140.0 |   311M |  47 |1314 | 782 |1604 | 966k|  2 |   3 | 956 | 1.673985e+00 | 5.960722e+00 | 256.08%|   9.98%
 time | node  | left  |LP iter|LP it/n|mem/heur|mdpt |vars |cons |rows |cuts |sepa|confs|strbr|  dualbound   | primalbound  |  gap   | compl. 
  265s|  8300 |  7741 |  1159k| 139.6 |   313M |  47 |1314 | 782 |1667 | 976k|  2 |   4 | 960 | 1.673985e+00 | 5.960722e+00 | 256.08%|  10.05%
  268s|  8400 |  7803 |  1170k| 139.1 |   315M |  47 |1314 | 782 |1463 | 985k|  2 |   4 | 961 | 1.673985e+00 | 5.960722e+00 | 256.08%|  10.15%
  270s|  8500 |  7869 |  1181k| 138.9 |   318M |  47 |1314 | 782 |1722 | 994k|  8 |   4 | 963 | 1.673985e+00 | 5.960722e+00 | 256.08%|  10.19%
  273s|  8600 |  7939 |  1193k| 138.7 |   321M |  47 |1314 | 782 |1661 |1005k|  2 |   4 | 966 | 1.673985e+00 | 5.960722e+00 | 256.08%|  10.27%
  275s|  8700 |  8013 |  1205k| 138.4 |   324M |  47 |1314 | 782 |1691 |1014k|  4 |   4 | 969 | 1.673985e+00 | 5.960722e+00 | 256.08%|  10.29%
  278s|  8800 |  8075 |  1215k| 138.0 |   326M |  47 |1314 | 782 |1680 |1023k|  3 |   4 | 970 | 1.673985e+00 | 5.960722e+00 | 256.08%|  10.30%
  280s|  8900 |  8131 |  1228k| 137.8 |   329M |  47 |1314 | 782 |1891 |1032k|  8 |   4 | 974 | 1.673985e+00 | 5.960722e+00 | 256.08%|  10.30%
  282s|  9000 |  8187 |  1238k| 137.4 |   332M |  47 |1314 | 782 |1477 |1040k|  9 |   4 | 979 | 1.673985e+00 | 5.960722e+00 | 256.08%|  10.39%
  285s|  9100 |  8255 |  1247k| 136.9 |   333M |  47 |1314 | 782 |1578 |1048k|  2 |   5 | 983 | 1.690049e+00 | 5.960722e+00 | 252.70%|  10.42%
  287s|  9200 |  8319 |  1258k| 136.6 |   336M |  47 |1314 | 782 |1714 |1058k|  1 |   5 | 985 | 1.714370e+00 | 5.960722e+00 | 247.69%|  10.47%
  290s|  9300 |  8379 |  1266k| 136.0 |   338M |  47 |1314 | 782 |1685 |1065k| 10 |   5 | 987 | 1.721691e+00 | 5.960722e+00 | 246.21%|  10.54%
  292s|  9400 |  8439 |  1276k| 135.7 |   339M |  47 |1314 | 782 |1614 |1073k|  2 |   5 | 988 | 1.727071e+00 | 5.960722e+00 | 245.13%|  10.60%
  294s|  9500 |  8497 |  1286k| 135.3 |   344M |  47 |1314 | 782 |1628 |1081k|  2 |   6 | 989 | 1.730879e+00 | 5.960722e+00 | 244.38%|  10.61%
  297s|  9600 |  8563 |  1297k| 135.0 |   345M |  47 |1314 | 782 |1749 |1090k|  8 |   6 | 994 | 1.734893e+00 | 5.960722e+00 | 243.58%|  10.69%
  299s|  9700 |  8613 |  1308k| 134.7 |   347M |  47 |1314 | 782 |1649 |1099k|  3 |   6 | 998 | 1.743098e+00 | 5.960722e+00 | 241.96%|  10.71%

SCIP Status        : solving was interrupted [time limit reached]
Solving Time (sec) : 300.00
Solving Nodes      : 9749
Primal Bound       : +5.96072162447758e+00 (11 solutions)
Dual Bound         : +1.74447100284836e+00
Gap                : 241.69 %


--- Reading solution for model GAMS_MODEL
***
*** Solver did not provide marginals for model GAMS_MODEL
***
--- Executing after solve: elapsed 0:05:00.329
--- model.gms(2644) 3 Mb
--- model.gms(3877) 5 Mb
--- Putfile results /local/scratch/a/sgusev/repos/k_means/data/gams_scip_gdp.hull/no_mode/2026-02-16_04-07-57/original/results.dat
--- Putfile statresults /local/scratch/a/sgusev/repos/k_means/data/gams_scip_gdp.hull/no_mode/2026-02-16_04-07-57/original/resultsstat.dat
*** Status: Normal completion
--- Job model.gms Stop 02/16/26 04:12:58 elapsed 0:05:00.331
Original problem solved. Time taken: 300.96405696868896 seconds
Original objective value: 5.960721624477579
